(set-logic QF_S)
(declare-fun sigmaStar_751 () String)
(declare-fun b_sigmaStar_751 () Bool)
(declare-fun atkPtn () String)
(declare-fun b_atkPtn () Bool)
(declare-fun x_12 () String)
(declare-fun b_x_12 () Bool)
(declare-fun x_16 () String)
(declare-fun b_x_16 () Bool)
(declare-fun sink () String)
(declare-fun b_sink () Bool)
(declare-fun atk_sigmaStar_1 () String)
(declare-fun atk_sigmaStar_2 () String)
(declare-fun atk_sink () String)

(assert (str.in.re atkPtn (re.++ (re.union (str.to.re "%27") (str.to.re "'")) (re.++ (re.* (str.to.re "s")) (re.++ (re.union (str.to.re "%6F") (str.to.re "o") (str.to.re "%4F")) (re.++ (re.* (str.to.re "s")) (re.++ (re.union (str.to.re "%72") (str.to.re "r") (str.to.re "%52")) (re.* (str.to.re "s")))))))))
(assert (= atk_sink (str.++ atk_sigmaStar_1 (str.++ atkPtn atk_sigmaStar_2))))
(assert (= b_x_12 (and (= x_12 (str.replace sigmaStar_751 "\\r" "") ) b_sigmaStar_751) ))
(assert (= b_x_16 (and (= x_16 (str.replace x_12 "\\n" "") ) b_x_12) ))
(assert (and (= sink x_16) (= sink atk_sink) b_x_16))
(assert (< 50 (+ (str.len sigmaStar_751) (str.len sink)) ) )
(check-sat)
